logs/miss/feas/miss-05-15-0.lp
\ LP format - for model browsing. Use MPS format to capture full model detail.
Minimize
  p0 + p1 + p2 + p3 + p4
Subject To
 R0: x0,1_6 + x0,2_6 + x0,3_6 + x0,4_6 + x1,2_6 + x1,3_6 + x1,4_6 + x2,3_6
   + x2,4_6 + x3,4_6 = 1
 R1: x0,1_9 + x0,2_9 + x0,3_9 + x0,4_9 + x1,2_9 + x1,3_9 + x1,4_9 + x2,3_9
   + x2,4_9 + x3,4_9 = 1
 R2: x0,1_15 + x0,2_15 + x0,3_15 + x0,4_15 + x1,2_15 + x1,3_15 + x1,4_15
   + x2,3_15 + x2,4_15 + x3,4_15 = 1
 R3: x0,1_22 + x0,2_22 + x0,3_22 + x0,4_22 + x1,2_22 + x1,3_22 + x1,4_22
   + x2,3_22 + x2,4_22 + x3,4_22 = 1
 R4: x0,1_31 + x0,2_31 + x0,3_31 + x0,4_31 + x1,2_31 + x1,3_31 + x1,4_31
   + x2,3_31 + x2,4_31 + x3,4_31 = 1
 R5: x0,1_6 + x0,1_9 + x0,1_15 + x0,1_22 + x0,1_31 <= 1
 R6: x0,2_6 + x0,2_9 + x0,2_15 + x0,2_22 + x0,2_31 <= 1
 R7: x0,3_6 + x0,3_9 + x0,3_15 + x0,3_22 + x0,3_31 <= 1
 R8: x0,4_6 + x0,4_9 + x0,4_15 + x0,4_22 + x0,4_31 <= 1
 R9: x1,2_6 + x1,2_9 + x1,2_15 + x1,2_22 + x1,2_31 <= 1
 R10: x1,3_6 + x1,3_9 + x1,3_15 + x1,3_22 + x1,3_31 <= 1
 R11: x1,4_6 + x1,4_9 + x1,4_15 + x1,4_22 + x1,4_31 <= 1
 R12: x2,3_6 + x2,3_9 + x2,3_15 + x2,3_22 + x2,3_31 <= 1
 R13: x2,4_6 + x2,4_9 + x2,4_15 + x2,4_22 + x2,4_31 <= 1
 R14: x3,4_6 + x3,4_9 + x3,4_15 + x3,4_22 + x3,4_31 <= 1
 R15: p0 - p1 <= -1
 R16: - 6 x0,1_6 - p0 + p1 >= 0
 R17: 83 x0,1_6 - p0 + p1 <= 89
 R18: - 9 x0,1_9 - p0 + p1 >= 0
 R19: 83 x0,1_9 - p0 + p1 <= 92
 R20: - 15 x0,1_15 - p0 + p1 >= 0
 R21: 83 x0,1_15 - p0 + p1 <= 98
 R22: - 22 x0,1_22 - p0 + p1 >= 0
 R23: 83 x0,1_22 - p0 + p1 <= 105
 R24: - 31 x0,1_31 - p0 + p1 >= 0
 R25: 83 x0,1_31 - p0 + p1 <= 114
 R26: p0 - p2 <= -1
 R27: - 6 x0,2_6 - p0 + p2 >= 0
 R28: 83 x0,2_6 - p0 + p2 <= 89
 R29: - 9 x0,2_9 - p0 + p2 >= 0
 R30: 83 x0,2_9 - p0 + p2 <= 92
 R31: - 15 x0,2_15 - p0 + p2 >= 0
 R32: 83 x0,2_15 - p0 + p2 <= 98
 R33: - 22 x0,2_22 - p0 + p2 >= 0
 R34: 83 x0,2_22 - p0 + p2 <= 105
 R35: - 31 x0,2_31 - p0 + p2 >= 0
 R36: 83 x0,2_31 - p0 + p2 <= 114
 R37: p0 - p3 <= -1
 R38: - 6 x0,3_6 - p0 + p3 >= 0
 R39: 83 x0,3_6 - p0 + p3 <= 89
 R40: - 9 x0,3_9 - p0 + p3 >= 0
 R41: 83 x0,3_9 - p0 + p3 <= 92
 R42: - 15 x0,3_15 - p0 + p3 >= 0
 R43: 83 x0,3_15 - p0 + p3 <= 98
 R44: - 22 x0,3_22 - p0 + p3 >= 0
 R45: 83 x0,3_22 - p0 + p3 <= 105
 R46: - 31 x0,3_31 - p0 + p3 >= 0
 R47: 83 x0,3_31 - p0 + p3 <= 114
 R48: p0 - p4 <= -1
 R49: - 6 x0,4_6 - p0 + p4 >= 0
 R50: 83 x0,4_6 - p0 + p4 <= 89
 R51: - 9 x0,4_9 - p0 + p4 >= 0
 R52: 83 x0,4_9 - p0 + p4 <= 92
 R53: - 15 x0,4_15 - p0 + p4 >= 0
 R54: 83 x0,4_15 - p0 + p4 <= 98
 R55: - 22 x0,4_22 - p0 + p4 >= 0
 R56: 83 x0,4_22 - p0 + p4 <= 105
 R57: - 31 x0,4_31 - p0 + p4 >= 0
 R58: 83 x0,4_31 - p0 + p4 <= 114
 R59: p1 - p2 <= -1
 R60: - 6 x1,2_6 - p1 + p2 >= 0
 R61: 83 x1,2_6 - p1 + p2 <= 89
 R62: - 9 x1,2_9 - p1 + p2 >= 0
 R63: 83 x1,2_9 - p1 + p2 <= 92
 R64: - 15 x1,2_15 - p1 + p2 >= 0
 R65: 83 x1,2_15 - p1 + p2 <= 98
 R66: - 22 x1,2_22 - p1 + p2 >= 0
 R67: 83 x1,2_22 - p1 + p2 <= 105
 R68: - 31 x1,2_31 - p1 + p2 >= 0
 R69: 83 x1,2_31 - p1 + p2 <= 114
 R70: p1 - p3 <= -1
 R71: - 6 x1,3_6 - p1 + p3 >= 0
 R72: 83 x1,3_6 - p1 + p3 <= 89
 R73: - 9 x1,3_9 - p1 + p3 >= 0
 R74: 83 x1,3_9 - p1 + p3 <= 92
 R75: - 15 x1,3_15 - p1 + p3 >= 0
 R76: 83 x1,3_15 - p1 + p3 <= 98
 R77: - 22 x1,3_22 - p1 + p3 >= 0
 R78: 83 x1,3_22 - p1 + p3 <= 105
 R79: - 31 x1,3_31 - p1 + p3 >= 0
 R80: 83 x1,3_31 - p1 + p3 <= 114
 R81: p1 - p4 <= -1
 R82: - 6 x1,4_6 - p1 + p4 >= 0
 R83: 83 x1,4_6 - p1 + p4 <= 89
 R84: - 9 x1,4_9 - p1 + p4 >= 0
 R85: 83 x1,4_9 - p1 + p4 <= 92
 R86: - 15 x1,4_15 - p1 + p4 >= 0
 R87: 83 x1,4_15 - p1 + p4 <= 98
 R88: - 22 x1,4_22 - p1 + p4 >= 0
 R89: 83 x1,4_22 - p1 + p4 <= 105
 R90: - 31 x1,4_31 - p1 + p4 >= 0
 R91: 83 x1,4_31 - p1 + p4 <= 114
 R92: p2 - p3 <= -1
 R93: - 6 x2,3_6 - p2 + p3 >= 0
 R94: 83 x2,3_6 - p2 + p3 <= 89
 R95: - 9 x2,3_9 - p2 + p3 >= 0
 R96: 83 x2,3_9 - p2 + p3 <= 92
 R97: - 15 x2,3_15 - p2 + p3 >= 0
 R98: 83 x2,3_15 - p2 + p3 <= 98
 R99: - 22 x2,3_22 - p2 + p3 >= 0
 R100: 83 x2,3_22 - p2 + p3 <= 105
 R101: - 31 x2,3_31 - p2 + p3 >= 0
 R102: 83 x2,3_31 - p2 + p3 <= 114
 R103: p2 - p4 <= -1
 R104: - 6 x2,4_6 - p2 + p4 >= 0
 R105: 83 x2,4_6 - p2 + p4 <= 89
 R106: - 9 x2,4_9 - p2 + p4 >= 0
 R107: 83 x2,4_9 - p2 + p4 <= 92
 R108: - 15 x2,4_15 - p2 + p4 >= 0
 R109: 83 x2,4_15 - p2 + p4 <= 98
 R110: - 22 x2,4_22 - p2 + p4 >= 0
 R111: 83 x2,4_22 - p2 + p4 <= 105
 R112: - 31 x2,4_31 - p2 + p4 >= 0
 R113: 83 x2,4_31 - p2 + p4 <= 114
 R114: p3 - p4 <= -1
 R115: - 6 x3,4_6 - p3 + p4 >= 0
 R116: 83 x3,4_6 - p3 + p4 <= 89
 R117: - 9 x3,4_9 - p3 + p4 >= 0
 R118: 83 x3,4_9 - p3 + p4 <= 92
 R119: - 15 x3,4_15 - p3 + p4 >= 0
 R120: 83 x3,4_15 - p3 + p4 <= 98
 R121: - 22 x3,4_22 - p3 + p4 >= 0
 R122: 83 x3,4_22 - p3 + p4 <= 105
 R123: - 31 x3,4_31 - p3 + p4 >= 0
 R124: 83 x3,4_31 - p3 + p4 <= 114
Bounds
Binaries
 x0,1_6 x0,1_9 x0,1_15 x0,1_22 x0,1_31 x0,2_6 x0,2_9 x0,2_15 x0,2_22
 x0,2_31 x0,3_6 x0,3_9 x0,3_15 x0,3_22 x0,3_31 x0,4_6 x0,4_9 x0,4_15
 x0,4_22 x0,4_31 x1,2_6 x1,2_9 x1,2_15 x1,2_22 x1,2_31 x1,3_6 x1,3_9
 x1,3_15 x1,3_22 x1,3_31 x1,4_6 x1,4_9 x1,4_15 x1,4_22 x1,4_31 x2,3_6
 x2,3_9 x2,3_15 x2,3_22 x2,3_31 x2,4_6 x2,4_9 x2,4_15 x2,4_22 x2,4_31
 x3,4_6 x3,4_9 x3,4_15 x3,4_22 x3,4_31
Generals
 p0 p1 p2 p3 p4
End
